<instance format="XCSP3" type="CSP">
  <variables>
    <array id="x" note="x[i][j] is the index of the piece at row i and column j" size="[8][8]"> 0..63 </array>
    <array id="t" note="t[i][j] is the value at the top of the piece at row i and column j" size="[9][8]"> 0..11 </array>
    <array id="l" note="l[i][j] is the value at the left of the piece at row i and column j" size="[8][9]"> 0..11 </array>
  </variables>
  <constraints>
    <allDifferent note="all pieces must be placed (only once)"> x[][] </allDifferent>
    <group note="all pieces must be valid (i.e., must correspond to those given initially, possibly after applying some rotation)">
      <extension>
        <list> %... </list>
        <supports> (0,0,0,1,2)(0,0,1,2,0)(0,1,2,0,0)(0,2,0,0,1)(1,0,0,2,1)(1,0,2,1,0)(1,1,0,0,2)(1,2,1,0,0)(2,0,0,2,2)(2,0,2,2,0)(2,2,0,0,2)(2,2,2,0,0)(3,0,0,2,3)(3,0,2,3,0)(3,2,3,0,0)(3,3,0,0,2)(4,0,1,4,1)(4,1,0,1,4)(4,1,4,1,0)(4,4,1,0,1)(5,0,1,5,3)(5,1,5,3,0)(5,3,0,1,5)(5,5,3,0,1)(6,0,1,6,3)(6,1,6,3,0)(6,3,0,1,6)(6,6,3,0,1)(7,0,1,8,1)(7,1,0,1,8)(7,1,8,1,0)(7,8,1,0,1)(8,0,1,8,3)(8,1,8,3,0)(8,3,0,1,8)(8,8,3,0,1)(9,0,1,10,1)(9,1,0,1,10)(9,1,10,1,0)(9,10,1,0,1)(10,0,1,10,2)(10,1,10,2,0)(10,2,0,1,10)(10,10,2,0,1)(11,0,1,11,1)(11,1,0,1,11)(11,1,11,1,0)(11,11,1,0,1)(12,0,1,11,2)(12,1,11,2,0)(12,2,0,1,11)(12,11,2,0,1)(13,0,2,4,1)(13,1,0,2,4)(13,2,4,1,0)(13,4,1,0,2)(14,0,2,4,2)(14,2,0,2,4)(14,2,4,2,0)(14,4,2,0,2)(15,0,2,4,3)(15,2,4,3,0)(15,3,0,2,4)(15,4,3,0,2)(16,0,2,9,1)(16,1,0,2,9)(16,2,9,1,0)(16,9,1,0,2)(17,0,2,9,2)(17,2,0,2,9)(17,2,9,2,0)(17,9,2,0,2)(18,0,2,10,3)(18,2,10,3,0)(18,3,0,2,10)(18,10,3,0,2)(19,0,3,4,2)(19,2,0,3,4)(19,3,4,2,0)(19,4,2,0,3)(20,0,3,4,3)(20,3,0,3,4)(20,3,4,3,0)(20,4,3,0,3)(21,0,3,5,1)(21,1,0,3,5)(21,3,5,1,0)(21,5,1,0,3)(22,0,3,5,2)(22,2,0,3,5)(22,3,5,2,0)(22,5,2,0,3)(23,0,3,9,1)(23,1,0,3,9)(23,3,9,1,0)(23,9,1,0,3)(24,0,3,9,3)(24,3,0,3,9)(24,3,9,3,0)(24,9,3,0,3)(25,0,3,10,2)(25,2,0,3,10)(25,3,10,2,0)(25,10,2,0,3)(26,0,3,11,1)(26,1,0,3,11)(26,3,11,1,0)(26,11,1,0,3)(27,0,3,11,3)(27,3,0,3,11)(27,3,11,3,0)(27,11,3,0,3)(28,4,5,4,7)(28,4,7,4,5)(28,5,4,7,4)(28,7,4,5,4)(29,4,5,10,6)(29,5,10,6,4)(29,6,4,5,10)(29,10,6,4,5)(30,4,6,5,9)(30,5,9,4,6)(30,6,5,9,4)(30,9,4,6,5)(31,4,6,7,5)(31,5,4,6,7)(31,6,7,5,4)(31,7,5,4,6)(32,4,6,10,9)(32,6,10,9,4)(32,9,4,6,10)(32,10,9,4,6)(33,4,7,4,9)(33,4,9,4,7)(33,7,4,9,4)(33,9,4,7,4)(34,4,7,5,6)(34,5,6,4,7)(34,6,4,7,5)(34,7,5,6,4)(35,4,8,7,11)(35,7,11,4,8)(35,8,7,11,4)(35,11,4,8,7)(36,4,8,10,10)(36,8,10,10,4)(36,10,4,8,10)(36,10,10,4,8)(37,4,9,6,5)(37,5,4,9,6)(37,6,5,4,9)(37,9,6,5,4)(38,4,9,6,8)(38,6,8,4,9)(38,8,4,9,6)(38,9,6,8,4)(39,4,10,11,8)(39,8,4,10,11)(39,10,11,8,4)(39,11,8,4,10)(40,4,11,7,10)(40,7,10,4,11)(40,10,4,11,7)(40,11,7,10,4)(41,4,11,8,6)(41,6,4,11,8)(41,8,6,4,11)(41,11,8,6,4)(42,5,5,5,8)(42,5,5,8,5)(42,5,8,5,5)(42,8,5,5,5)(43,5,5,11,10)(43,5,11,10,5)(43,10,5,5,11)(43,11,10,5,5)(44,5,6,10,10)(44,6,10,10,5)(44,10,5,6,10)(44,10,10,5,6)(45,5,7,5,10)(45,5,10,5,7)(45,7,5,10,5)(45,10,5,7,5)(46,5,7,6,9)(46,6,9,5,7)(46,7,6,9,5)(46,9,5,7,6)(47,5,8,6,6)(47,6,5,8,6)(47,6,6,5,8)(47,8,6,6,5)(48,5,9,6,6)(48,6,5,9,6)(48,6,6,5,9)(48,9,6,6,5)(49,5,9,8,11)(49,8,11,5,9)(49,9,8,11,5)(49,11,5,9,8)(50,5,11,8,7)(50,7,5,11,8)(50,8,7,5,11)(50,11,8,7,5)(51,6,6,8,11)(51,6,8,11,6)(51,8,11,6,6)(51,11,6,6,8)(52,6,7,8,7)(52,7,6,7,8)(52,7,8,7,6)(52,8,7,6,7)(53,6,7,11,7)(53,7,6,7,11)(53,7,11,7,6)(53,11,7,6,7)(54,6,8,7,9)(54,7,9,6,8)(54,8,7,9,6)(54,9,6,8,7)(55,6,9,10,7)(55,7,6,9,10)(55,9,10,7,6)(55,10,7,6,9)(56,6,10,7,8)(56,7,8,6,10)(56,8,6,10,7)(56,10,7,8,6)(57,7,8,9,11)(57,8,9,11,7)(57,9,11,7,8)(57,11,7,8,9)(58,7,9,10,11)(58,9,10,11,7)(58,10,11,7,9)(58,11,7,9,10)(59,7,10,10,8)(59,8,7,10,10)(59,10,8,7,10)(59,10,10,8,7)(60,7,10,11,11)(60,10,11,11,7)(60,11,7,10,11)(60,11,11,7,10)(61,7,11,9,8)(61,8,7,11,9)(61,9,8,7,11)(61,11,9,8,7)(62,7,11,9,9)(62,9,7,11,9)(62,9,9,7,11)(62,11,9,9,7)(63,8,8,9,11)(63,8,9,11,8)(63,9,11,8,8)(63,11,8,8,9) </supports>
      </extension>
      <args> x[0][0] t[0][0] l[0][1] t[1][0] l[0][0] </args>
      <args> x[0][1] t[0][1] l[0][2] t[1][1] l[0][1] </args>
      <args> x[0][2] t[0][2] l[0][3] t[1][2] l[0][2] </args>
      <args> x[0][3] t[0][3] l[0][4] t[1][3] l[0][3] </args>
      <args> x[0][4] t[0][4] l[0][5] t[1][4] l[0][4] </args>
      <args> x[0][5] t[0][5] l[0][6] t[1][5] l[0][5] </args>
      <args> x[0][6] t[0][6] l[0][7] t[1][6] l[0][6] </args>
      <args> x[0][7] t[0][7] l[0][8] t[1][7] l[0][7] </args>
      <args> x[1][0] t[1][0] l[1][1] t[2][0] l[1][0] </args>
      <args> x[1][1] t[1][1] l[1][2] t[2][1] l[1][1] </args>
      <args> x[1][2] t[1][2] l[1][3] t[2][2] l[1][2] </args>
      <args> x[1][3] t[1][3] l[1][4] t[2][3] l[1][3] </args>
      <args> x[1][4] t[1][4] l[1][5] t[2][4] l[1][4] </args>
      <args> x[1][5] t[1][5] l[1][6] t[2][5] l[1][5] </args>
      <args> x[1][6] t[1][6] l[1][7] t[2][6] l[1][6] </args>
      <args> x[1][7] t[1][7] l[1][8] t[2][7] l[1][7] </args>
      <args> x[2][0] t[2][0] l[2][1] t[3][0] l[2][0] </args>
      <args> x[2][1] t[2][1] l[2][2] t[3][1] l[2][1] </args>
      <args> x[2][2] t[2][2] l[2][3] t[3][2] l[2][2] </args>
      <args> x[2][3] t[2][3] l[2][4] t[3][3] l[2][3] </args>
      <args> x[2][4] t[2][4] l[2][5] t[3][4] l[2][4] </args>
      <args> x[2][5] t[2][5] l[2][6] t[3][5] l[2][5] </args>
      <args> x[2][6] t[2][6] l[2][7] t[3][6] l[2][6] </args>
      <args> x[2][7] t[2][7] l[2][8] t[3][7] l[2][7] </args>
      <args> x[3][0] t[3][0] l[3][1] t[4][0] l[3][0] </args>
      <args> x[3][1] t[3][1] l[3][2] t[4][1] l[3][1] </args>
      <args> x[3][2] t[3][2] l[3][3] t[4][2] l[3][2] </args>
      <args> x[3][3] t[3][3] l[3][4] t[4][3] l[3][3] </args>
      <args> x[3][4] t[3][4] l[3][5] t[4][4] l[3][4] </args>
      <args> x[3][5] t[3][5] l[3][6] t[4][5] l[3][5] </args>
      <args> x[3][6] t[3][6] l[3][7] t[4][6] l[3][6] </args>
      <args> x[3][7] t[3][7] l[3][8] t[4][7] l[3][7] </args>
      <args> x[4][0] t[4][0] l[4][1] t[5][0] l[4][0] </args>
      <args> x[4][1] t[4][1] l[4][2] t[5][1] l[4][1] </args>
      <args> x[4][2] t[4][2] l[4][3] t[5][2] l[4][2] </args>
      <args> x[4][3] t[4][3] l[4][4] t[5][3] l[4][3] </args>
      <args> x[4][4] t[4][4] l[4][5] t[5][4] l[4][4] </args>
      <args> x[4][5] t[4][5] l[4][6] t[5][5] l[4][5] </args>
      <args> x[4][6] t[4][6] l[4][7] t[5][6] l[4][6] </args>
      <args> x[4][7] t[4][7] l[4][8] t[5][7] l[4][7] </args>
      <args> x[5][0] t[5][0] l[5][1] t[6][0] l[5][0] </args>
      <args> x[5][1] t[5][1] l[5][2] t[6][1] l[5][1] </args>
      <args> x[5][2] t[5][2] l[5][3] t[6][2] l[5][2] </args>
      <args> x[5][3] t[5][3] l[5][4] t[6][3] l[5][3] </args>
      <args> x[5][4] t[5][4] l[5][5] t[6][4] l[5][4] </args>
      <args> x[5][5] t[5][5] l[5][6] t[6][5] l[5][5] </args>
      <args> x[5][6] t[5][6] l[5][7] t[6][6] l[5][6] </args>
      <args> x[5][7] t[5][7] l[5][8] t[6][7] l[5][7] </args>
      <args> x[6][0] t[6][0] l[6][1] t[7][0] l[6][0] </args>
      <args> x[6][1] t[6][1] l[6][2] t[7][1] l[6][1] </args>
      <args> x[6][2] t[6][2] l[6][3] t[7][2] l[6][2] </args>
      <args> x[6][3] t[6][3] l[6][4] t[7][3] l[6][3] </args>
      <args> x[6][4] t[6][4] l[6][5] t[7][4] l[6][4] </args>
      <args> x[6][5] t[6][5] l[6][6] t[7][5] l[6][5] </args>
      <args> x[6][6] t[6][6] l[6][7] t[7][6] l[6][6] </args>
      <args> x[6][7] t[6][7] l[6][8] t[7][7] l[6][7] </args>
      <args> x[7][0] t[7][0] l[7][1] t[8][0] l[7][0] </args>
      <args> x[7][1] t[7][1] l[7][2] t[8][1] l[7][1] </args>
      <args> x[7][2] t[7][2] l[7][3] t[8][2] l[7][2] </args>
      <args> x[7][3] t[7][3] l[7][4] t[8][3] l[7][3] </args>
      <args> x[7][4] t[7][4] l[7][5] t[8][4] l[7][4] </args>
      <args> x[7][5] t[7][5] l[7][6] t[8][5] l[7][5] </args>
      <args> x[7][6] t[7][6] l[7][7] t[8][6] l[7][6] </args>
      <args> x[7][7] t[7][7] l[7][8] t[8][7] l[7][7] </args>
    </group>
    <group note="putting special value 0 on borders">
      <intension> eq(%0,0) </intension>
      <args> t[0][0] </args>
      <args> t[0][1] </args>
      <args> t[0][2] </args>
      <args> t[0][3] </args>
      <args> t[0][4] </args>
      <args> t[0][5] </args>
      <args> t[0][6] </args>
      <args> t[0][7] </args>
      <args> l[0][8] </args>
      <args> l[1][8] </args>
      <args> l[2][8] </args>
      <args> l[3][8] </args>
      <args> l[4][8] </args>
      <args> l[5][8] </args>
      <args> l[6][8] </args>
      <args> l[7][8] </args>
      <args> t[8][0] </args>
      <args> t[8][1] </args>
      <args> t[8][2] </args>
      <args> t[8][3] </args>
      <args> t[8][4] </args>
      <args> t[8][5] </args>
      <args> t[8][6] </args>
      <args> t[8][7] </args>
      <args> l[0][0] </args>
      <args> l[1][0] </args>
      <args> l[2][0] </args>
      <args> l[3][0] </args>
      <args> l[4][0] </args>
      <args> l[5][0] </args>
      <args> l[6][0] </args>
      <args> l[7][0] </args>
    </group>
  </constraints>
</instance>
